#pLT is two-dimensional [i,r]=[component, individual]
#[i,*] means all data in row i.

param pLT := 
[1,*]
1  0    2  7    3  7    4  4    5  7    6  2    7  7    8  8    9  3    10 5    
11 7    12 8    

[2,*]
1  2    2  4    3  3    4  4    5  1    6  4    7  4    8  2    9  3    10 4    
11 4    12 2    

[3,*]
1  1    2  2    3  3    4  1    5  3    6  3    7  1    8  2    9  3    10 3    
11 1    12 3    

[4,*]
1  1    2  3    3  1    4  3    5  3    6  1    7  1    8  2    9  3    10 1    
11 2    12 2    

[5,*]
1  1    2  1    3  2    4  2    5  1    6  1    7  2    8  2    9  1    10 1    
11 1    12 1    

[6,*]
1  1    2  4    3  5    4  2    5  3    6  4    7  5    8  2    9  4    10 3    
11 2    12 2    

[7,*]
1  4    2  7    3  3    4  4    5  6    6  7    7  3    8  6    9  5    10 3    
11 4    12 6    

[8,*]
1  1    2  1    3  1    4  1    5  2    6  1    7  1    8  1    9  1    10 1    
11 1    12 1    

[9,*]
1  1    2  1    3  2    4  2    5  1    6  1    7  1    8  1    9  1    10 1    
11 1    12 1    

[10,*]
1  1    2  1    3  1    4  1    5  1    6  1    7  1    8  1    9  1    10 1    
11 1    12 1    
;